50

99 12 316
96 12 420
94 21 357
93 19 393
93 28 313
91 11 370
87 21 341
87 14 340
87 26 394
84 21 472
84 20 315
83 7 305
83 20 249
83 2 256
83 11 448
83 6 469
82 23 397
81 17 247
81 3 466
78 17 403
77 1 458
77 24 318
77 13 344
76 20 380
67 8 252
65 1 238
61 16 300
61 10 221
59 1 306
58 4 459
53 9 327
53 1 419
50 10 231
49 12 222
48 7 369
47 1 285
47 9 453
46 8 257
46 2 346
44 9 269
43 1 269
42 5 432
41 12 470
41 9 418
38 1 404
35 11 391
34 2 223
32 2 145
32 6 271
31 3 284
